NAME : instances/clustered-mixed-tsp/instance-45.tsp
COMMENT : No Comment
TYPE : TSP
DIMENSION: 54
EDGE_WEIGHT_TYPE : EUC_2D
NODE_COORD_SECTION
1 187 768 
2 630 345 
3 7 846 
4 259 962 
5 188 395 
6 802 882 
7 996 818 
8 360 427 
9 540 297 
10 890 856 
11 662 345 
12 720 287 
13 950 886 
14 633 658 
15 642 353 
16 956 994 
17 532 551 
18 750 832 
19 51 918 
20 255 738 
21 452 447 
22 131 750 
23 199 820 
24 659 562 
25 540 543 
26 344 509 
27 -25 876 
28 221 393 
29 -1 1026 
30 791 456 
31 766 343 
32 730 898 
33 744 894 
34 386 621 
35 -71 315 
36 956 884 
37 599 410 
38 738 1080 
39 765 484 
40 1016 864 
41 -57 726 
42 764 838 
43 840 994 
44 484 325 
45 1000 938 
46 656 503 
47 15 1006 
48 783 668 
49 -29 201 
50 33 838 
51 942 1044 
52 -39 1000 
53 808 922 
54 888 852 
EOF
